
  32    4
  10   10   10   10

   0   0   0   0   0  16 2 3 4 6 8 9 13 14 24 25 26 27 28 29 30 31 
   4  10  10  10  10   4 21 18 12 7 
   1  10  10  10  10   1 5 
   3  10  10  10  10   4 20 19 17 11 
   6  10  10  10  10   2 17 7 
   3  10  10  10  10   3 23 16 11 
   6  10  10  10  10   1 10 
   7  10  10  10  10   2 22 21 
   5  10  10  10  10   2 20 19 
   7  10  10  10  10   1 11 
   1  10  10  10  10   1 15 
   6  10  10  10  10   1 16 
   2  10  10  10  10   1 18 
  10  10  10  10  10   1 16 
   4  10  10  10  10   1 32
   3  10  10  10  10   1 32
   9  10  10  10  10   1 32
   7  10  10  10  10   1 32
  10  10  10  10  10   1 32
   2  10  10  10  10   1 32
   5  10  10  10  10   1 32
   3  10  10  10  10   1 32
   7  10  10  10  10   1 32
   4  10  10  10  10   1 32
   3  10  10  10  10   1 32
   2  10  10  10  10   1 32
  10  10  10  10  10   1 32
   8  10  10  10  10   1 32
   2  10  10  10  10   1 32
  10  10  10  10  10   1 32
   9  10  10  10  10   1 32
   0   0   0   0   0   0 
